data/solutions/planning/wellformed/moderate/highest_rank_objective/wellformed_moderate_instance35_cplex.sol
Elapsed time: 6.81
Nodes explored: 34199
Nodes left: -
Relative gap: -
Upper bound: 106587.0
Lower bound: -
C[0]=7106.0
C[1]=7106.0
C[2]=7105.0
C[3]=7105.0
y[0]=2
y[1]=3
y[2]=1
y[3]=0
y[4]=0
y[5]=3
y[6]=1
y[7]=0
y[8]=0
y[9]=3
y[10]=2
y[11]=3
y[12]=2
y[13]=2
y[14]=2
y[15]=0
y[16]=0
y[17]=0
y[18]=2
y[19]=1
y[20]=2
y[21]=2
y[22]=3
y[23]=1
y[24]=0
y[25]=1
y[26]=0
y[27]=1
y[28]=1
y[29]=3
